! Created with skrf (http://scikit-rf.org).
# Hz S RI R 50.0 
!freq ReS11 ImS11
50000000.0 -1.0050265630713668 -0.049251668125346294
97474747.47474748 -0.9913982906810197 -0.10379794505426715
144949494.94949496 -0.989748485622385 -0.15595844266291314
192424242.4242424 -0.978103757552405 -0.20368918559327562
239898989.8989899 -0.9663423177303854 -0.25671417699380006
287373737.37373734 -0.9530768846302731 -0.3044258182324066
334848484.8484848 -0.9340339824173183 -0.35422607330948985
382323232.3232323 -0.9158492642457378 -0.40318320307962496
429797979.7979798 -0.8924131477233808 -0.4496720199346081
477272727.27272725 -0.8671829888549614 -0.497906474196828
524747474.74747473 -0.8399674784602229 -0.5427491749760985
572222222.2222222 -0.8081570805782294 -0.5878069763031699
619696969.6969696 -0.7757030638742783 -0.6316324821935857
667171717.1717172 -0.7389184897771932 -0.6728346784098966
714646464.6464646 -0.6998496538185688 -0.7142254354657588
762121212.1212121 -0.6586316287704675 -0.7522470949809897
809595959.5959595 -0.6132480821939464 -0.7891828366998408
857070707.070707 -0.5666532593021412 -0.8241099094102886
904545454.5454545 -0.516241837795997 -0.8556832116773854
952020202.0202019 -0.46340113545230627 -0.8860610331627145
999494949.4949495 -0.40854297198542555 -0.912393355223958
1046969696.9696969 -0.34997107714047215 -0.9362186192740245
1094444444.4444444 -0.29020523757725947 -0.9569386308689254
1141919191.9191918 -0.22732450378731717 -0.9731244016758092
1189393939.3939393 -0.1623991603832189 -0.9865904438273629
1236868686.8686867 -0.09616021785326909 -0.9949084228627827
1284343434.3434343 -0.027161587644451646 -0.9991271593785491
1331818181.8181818 0.04222979676921998 -0.9989303218088029
1379292929.2929292 0.1133362683650771 -0.9928288237726247
1426767676.7676766 0.18523765955481356 -0.9824785559133652
1474242424.2424242 0.2568231012286566 -0.9658443162908448
1521717171.7171717 0.3292513381061024 -0.9436830160292364
1569191919.191919 0.40018999829476676 -0.9160534590638014
1616666666.6666665 0.47036792583194664 -0.8815788437954952
1664141414.141414 0.5389845059123584 -0.8419323993245944
1711616161.6161616 0.6045424256923284 -0.7956458814337214
1759090909.090909 0.6679568415666383 -0.7434097018371448
1806565656.5656564 0.727023344245672 -0.6858579925310979
1854040404.0404038 0.7819820576314238 -0.6219299358432003
1901515151.5151515 0.8322897995842893 -0.553517171983713
1948989898.989899 0.8763190213610607 -0.4799243789782527
1996464646.4646463 0.9149518134658674 -0.4019286066741534
2043939393.9393938 0.946415839675696 -0.3208097020018256
2091414141.4141412 0.9708125454935475 -0.23598911102883668
2138888888.8888888 0.9881542824978229 -0.14949712057846987
2186363636.363636 0.997141758393397 -0.06136977670544706
2233838383.8383837 0.9988759805833441 0.027610763687014456
2281313131.3131313 0.9924276032747344 0.1158167679036471
2328787878.7878785 0.9780852976136915 0.2035367000433103
2376262626.262626 0.9565635334664433 0.2889763186351767
2400000000.0 0.942710502681549 0.3309468595117565
2423737373.7373734 0.9271958822418954 0.37177561967082473
2471212121.212121 0.8913599136208308 0.4514814292140159
2518686868.6868687 0.84894842010684 0.5266719514135321
2566161616.161616 0.8004881248139679 0.597686935584322
2613636363.6363635 0.7471350903303179 0.6633832109242166
2661111111.111111 0.6887212609887606 0.7235379785199876
2708585858.5858583 0.6265946840053969 0.7781995997212059
2756060606.060606 0.5611122941454013 0.8264972837660227
2803535353.535353 0.4927761662368125 0.8689874939136615
2851010101.010101 0.42272462861217636 0.9052176991731703
2898484848.4848485 0.3509575861121845 0.9352249630029628
2945959595.9595957 0.2785135906872614 0.9594537991635685
2993434343.4343433 0.2058481744293914 0.9775397996443971
3040909090.9090905 0.13283799201642066 0.9901152736586734
3088383838.383838 0.06097884317534924 0.9971163436071451
3135858585.858586 -0.010106247737088014 0.9988486997396933
3183333333.333333 -0.07978190907696159 0.9957931772570755
3230808080.8080807 -0.1477821165506773 0.9879073550268215
3278282828.282828 -0.2139934437330408 0.9757429337446015
3325757575.7575755 -0.2779461444235328 0.9594799824298441
3373232323.232323 -0.3396983990754738 0.9393462002068376
3420707070.7070704 -0.3989594349424893 0.9157974942402661
3468181818.181818 -0.45561523397653114 0.8889045993306037
3515656565.656565 -0.5096691172494394 0.8590756111250015
3563131313.131313 -0.5609067409815667 0.8265122041784785
3610606060.6060605 -0.6093949220173029 0.7914095026121175
3658080808.0808077 -0.6550332350131598 0.7540814185870159
3705555555.5555553 -0.6977969880469375 0.7146463862021786
3753030303.030303 -0.7377150956815519 0.6733583285827704
3800505050.50505 -0.7747298564628613 0.6303874494513027
3847979797.979798 -0.8088817347994754 0.5858924588080829
3895454545.454545 -0.8401662991762551 0.5400469342267507
3942929292.9292927 -0.8685925456143152 0.4929979709465076
3990404040.4040403 -0.8941693047766948 0.44487820480524176
4037878787.8787875 -0.9169287071845021 0.39582455902064945
4085353535.353535 -0.936866745369904 0.34597768111222166
4132828282.8282824 -0.9540411369337716 0.2954520745143485
4180303030.30303 -0.9686482803680609 0.24443124776024344
4227777777.7777777 -0.9801607537662236 0.19198452238735375
4275252525.252525 -0.988723587930759 0.1400223910338237
4322727272.727272 -0.9946304895014231 0.08774552643321815
4370202020.20202 -0.9978267367389867 0.0351082344533476
4417676767.676767 -0.9982897354188279 -0.0175524117517159
4465151515.151515 -0.9958574942978027 -0.0703133655774601
4512626262.626263 -0.9907466238795755 -0.12303015788573402
4560101010.101009 -0.982715102786009 -0.17550001765237028
4607575757.575757 -0.9718627725985228 -0.22785772670879723
4655050505.050505 -0.958206190980122 -0.27972806174854387
4702525252.525252 -0.9415099842666199 -0.3312033033125537
4750000000.0 -0.9220448869227467 -0.38213183552849084
