! Created with skrf (http://scikit-rf.org).
# Hz S RI R 50.0 
!freq ReS11 ImS11 ReS12 ImS12 ReS13 ImS13
! ReS14 ImS14
! ReS21 ImS21 ReS22 ImS22 ReS23 ImS23
! ReS24 ImS24
! ReS31 ImS31 ReS32 ImS32 ReS33 ImS33
! ReS34 ImS34
! ReS41 ImS41 ReS42 ImS42 ReS43 ImS43
! ReS44 ImS44
!
50000000.0 0.20881640422651024 0.06516245335064469 -0.7848054999373352 0.009536437487912476 -0.3506030682126795 0.09488667700348605 0.4251840227226166 0.09298083661339462
 -0.786090101533798 0.009782151592343318 0.20858177982803106 0.048049704169502196 -0.3573690588687234 0.12040165807443416 0.4212061649990977 0.08309484304855162
 -0.35127603509089667 0.09504426003090918 -0.3578187106512514 0.12013881462127801 -0.06012410633594424 0.3304490766510919 -0.7188435683612103 0.23697056905724975
 0.42602125955968495 0.09316450168936026 0.4208096235033577 0.08301415685960588 -0.7198760082580704 0.2367281123517688 -0.1592185436144179 0.1709746184628048
97474747.47474748 0.19687182331638306 0.06390031793190029 -0.7988026403523367 -0.03607594841087439 -0.3967776919668403 0.02261221140927286 0.3942471695835677 0.06816338126169491
 -0.8006406239416929 -0.03625682745547487 0.20152583537366528 0.030432093146394452 -0.38778726142009406 0.054475090037136756 0.4062021857091131 0.03380336719072877
 -0.3977239495374056 0.02266662994105672 -0.3878049809459796 0.05465825547130935 -0.19454615953042648 0.1648470181625382 -0.7732403497984662 0.09256991779176409
 0.3951247388755449 0.06833886141391557 0.40620225206856214 0.03390056177971813 -0.7730273285794669 0.09268515244085679 -0.19200238349840587 0.07830260991412127
144949494.94949496 0.18983836593771589 0.07901298304141846 -0.7949366174541792 -0.06925182441030345 -0.3919160503693122 -0.011653980839271563 0.3931204897341316 0.07067150603173822
 -0.7967669217026475 -0.0693489358284855 0.19580597324763055 0.029389975753199897 -0.397169924449376 0.03586110276235888 0.39730148122650044 0.01950679840119797
 -0.3928239389965737 -0.011647160155092425 -0.39714491053903384 0.03583065288235252 -0.19152714539466123 0.11422189920727097 -0.794607617613296 0.0472214988424684
 0.39396949006863846 0.07079730469726557 0.39726092761492304 0.01944866553209462 -0.794445651396131 0.047030860743314494 -0.20958911533492158 0.05450964194416865
192424242.4242424 0.18563989654715418 0.09628501794342004 -0.7926259772388542 -0.10212548773729968 -0.39338491337412596 -0.04586662561297712 0.3891803244156418 0.07365116214204019
 -0.7944310270718965 -0.10237022619915234 0.19588803596073226 0.03161873695104882 -0.3964863387610028 0.022816543986409445 0.4008886114550802 0.011129458347418509
 -0.39432154327862357 -0.0459531493758475 -0.3965543778244056 0.02286017313027367 -0.20372754405831528 0.0632294348210412 -0.7885695193695325 0.015510240822394916
 0.3900112652799126 0.07380737138427766 0.40080033979287993 0.011142473440999633 -0.7884196571372112 0.015475581566156922 -0.20477993335644104 0.04188769364703344
239898989.8989899 0.1786694655912798 0.11344051154059274 -0.7877800376201731 -0.13007791697498744 -0.39000297266381717 -0.06631003762835029 0.38619002100467886 0.08429472706250135
 -0.7896223576650278 -0.13035579897607438 0.19323095032928642 0.03258431950946342 -0.40004130918762026 0.012148158547536777 0.3998156415794038 0.0009217225771833319
 -0.39093857970789114 -0.0664059035421204 -0.400038028894223 0.01221501550439189 -0.20867817530624444 0.04910164758114234 -0.7931025059764216 -0.0155056836909586
 0.3870239481399361 0.08446511195672585 0.3997656149183906 0.0009264945689744504 -0.7928610982524613 -0.01562471519505033 -0.20872842226280947 0.026806799572146694
287373737.37373734 0.17099629490459564 0.13251375415160616 -0.7810060725084984 -0.15956876441244808 -0.38324325698631606 -0.09164096008996549 0.3846266090763408 0.09288576531844675
 -0.7828042114056931 -0.159915485611502 0.1908605279307924 0.037036625069410745 -0.40116990349799075 0.006952600299826549 0.4004303760083706 -0.0021257947773346882
 -0.3841566165147488 -0.09179904654876661 -0.40119777627249675 0.006992776377689907 -0.2047667053485763 0.023263706239179196 -0.7924585847680798 -0.031203151683827465
 0.3854486024350915 0.0930709202777296 0.40034843818917865 -0.0021352599692368588 -0.7922897804924821 -0.031312978382121326 -0.2097760317760945 0.02461906394945172
334848484.8484848 0.16274986199855435 0.15019614944879425 -0.7747209253583827 -0.18686215480276125 -0.37994829424618726 -0.11134125872518418 0.38027573888297095 0.103811376829987
 -0.7765266298616617 -0.18728268526906522 0.1893918361567792 0.0395260360700507 -0.4017988360191077 -0.0005403084278285717 0.4035491999211354 -0.008611374250111412
 -0.3808777249235893 -0.11153032438085615 -0.401831317309481 -0.0004536569307468876 -0.21351080501810996 0.009241199202673585 -0.7879935680164519 -0.053702600758895915
 0.38109337139691607 0.10402393139269898 0.4034758380739779 -0.008599039666315745 -0.787766907233451 -0.05380508816999761 -0.2068077054424291 0.016312481971617207
382323232.3232323 0.15227019627629476 0.1680294414855455 -0.7655285060681084 -0.21371043834564768 -0.3705048884716707 -0.13065009798421373 0.3781046496349655 0.11517829263259842
 -0.7673081664719839 -0.21417117304769903 0.18575960942363656 0.0430087930784999 -0.404465956147502 -0.005396587309528133 0.4033076457792521 -0.01260309313581677
 -0.3714063854644207 -0.13086878798203871 -0.4044741123015943 -0.005322543689732616 -0.20878092104141574 -0.0023294846518991112 -0.7898604344961676 -0.06989569235094546
 0.37891570520593143 0.11540840424185458 0.4032355280847838 -0.012608395044098827 -0.7896660077791554 -0.07005035113979469 -0.21011202458104491 0.012434104574023983
429797979.7979798 0.14167379316578882 0.18558537247455525 -0.7567174281405028 -0.24064879566586403 -0.36421675507294177 -0.1509445368742409 0.37380354195007226 0.12553840300945626
 -0.7584760959370594 -0.24118682789573428 0.18370019334690726 0.0467463587590887 -0.4046950370223969 -0.010323299090177417 0.40691404208245985 -0.015591463006072523
 -0.36511773714727175 -0.15121206200878376 -0.4047299414813643 -0.010234062743101742 -0.21313398382904208 -0.019411841363928116 -0.7839987678295288 -0.08477004859593587
 0.3746045691595345 0.12579191099380563 0.4068314127808566 -0.01558611279454995 -0.7837967531386919 -0.0849032348683963 -0.2069048116763562 0.010200870486505132
477272727.27272725 0.12941295590834892 0.20178354535223067 -0.7462352280721789 -0.26571217858652424 -0.35498602219301606 -0.16696586223661902 0.3698383228323033 0.13777657800832074
 -0.7479815692972606 -0.2662930192284346 0.1802285799543733 0.0491841362622309 -0.40696297004521964 -0.01610291543547709 0.40849550586703803 -0.02048807901930588
 -0.3558762930557418 -0.16725270081174534 -0.40697874302458986 -0.015993946573495673 -0.21413319324464264 -0.02604248356287512 -0.7828655065723157 -0.10281889725122663
 0.37063507108618465 0.138051945768388 0.40842146553060077 -0.020484405266723054 -0.7826477658058537 -0.10299634928715191 -0.20760896922528815 0.004416610788396248
524747474.74747473 0.11614736216690967 0.2180748866881968 -0.7346567855270146 -0.2913903795759303 -0.3447302278582048 -0.18580547236874484 0.3658974660883126 0.14837843772804418
 -0.7363693716360498 -0.29203190476475593 0.17678339775825655 0.05291186658568792 -0.40833396589160237 -0.02006260969911702 0.41079943059073293 -0.022232511462362235
 -0.3455961798974532 -0.1861345496245045 -0.4083544524773314 -0.01996077246670708 -0.21248611492163125 -0.04090474155860112 -0.7796864646706673 -0.11468430799151923
 0.3666847368778652 0.14867557020419475 0.4107177149615345 -0.022234151889400856 -0.779492748778211 -0.11486307644513685 -0.20734569700599054 0.004044616656203292
572222222.2222222 0.10234469991464398 0.2329275305436636 -0.7229150739601661 -0.3155311874416519 -0.3356556571770202 -0.2012719357106878 0.36046976286904214 0.15999496894101783
 -0.7246135492123269 -0.3162312715881107 0.17371718924984544 0.055194164244864515 -0.4095019862071998 -0.02588817231812077 0.414479613268954 -0.026088192241396913
 -0.33651964718429117 -0.20162994950917865 -0.4095265547259663 -0.025759238034734924 -0.21726729120373228 -0.05028332683188871 -0.7744675911109113 -0.13110840541449367
 0.3612486500394594 0.16031677800375518 0.4143999873756175 -0.026083168910375522 -0.7742482030894641 -0.13130193938581108 -0.2048977377802618 -0.000289536241489155
619696969.6969696 0.08697372168829566 0.24709358677539628 -0.7092743738664673 -0.3392470840572537 -0.3229750696191431 -0.21695589957153497 0.356095549343905 0.17134350653566935
 -0.7109370609780565 -0.33999273870327557 0.16938233205662828 0.05783902661487715 -0.4118128472252285 -0.030554301777776644 0.4162562748564339 -0.028532139036272147
 -0.32380988465566035 -0.21733834125307627 -0.41182482266594 -0.030422496409206804 -0.2143535803686976 -0.05991886017536722 -0.772846307196759 -0.144257328315107
 0.35686473265800284 0.17168624545408354 0.4161782580035411 -0.02853240518153738 -0.772642730849385 -0.14448019347913144 -0.2061173763992204 -0.0023909161554653367
667171717.1717172 0.07136748211456413 0.26051418707164775 -0.6957149119345188 -0.3625892105547555 -0.3122650918027704 -0.2326327520098219 0.3502212844505764 0.18200836417082228
 -0.6973505676926789 -0.36339410077674356 0.1660415235117064 0.06031562389917895 -0.41258397537183683 -0.03572253802835512 0.420465239652019 -0.030502031091468446
 -0.31308799550405186 -0.23305205906541296 -0.4126082010703064 -0.03558219238902951 -0.21732468178218578 -0.0732523521823045 -0.7663904796893863 -0.1571788586899556
 0.3509800445398531 0.1823736427370356 0.4203818528749839 -0.030498660209817837 -0.7661804355832128 -0.1573966407045671 -0.20326706228927205 -0.003869413083384789
714646464.6464646 0.054649093849979284 0.2724337604543742 -0.6808473813849353 -0.38444743178057705 -0.29920423947033414 -0.24556074969447264 0.3446009026918617 0.19360874326939972
 -0.682455017747177 -0.38529628496931184 0.16175205191484326 0.06180275436398651 -0.4146914081133934 -0.041600714161099055 0.4233116819229607 -0.03363321966827276
 -0.300009510207154 -0.24599773279979056 -0.41470473275371855 -0.041439125592415936 -0.21766482245658333 -0.08052963158814412 -0.763112620248236 -0.17214054220697037
 0.345349825283916 0.19399638201861769 0.42323191107021496 -0.03362992775567683 -0.762896781870191 -0.17239309006402936 -0.20303805224112373 -0.007728836392809425
762121212.1212121 0.03720755688436149 0.28385001995941955 -0.6652370696609814 -0.4063940255250489 -0.28575413416391937 -0.26013658079503676 0.3387850362830693 0.20394418918360832
 -0.6668063686633816 -0.4072944259640532 0.15761739621693466 0.06395113937396667 -0.41596231326004707 -0.04653449306477558 0.4268017152781032 -0.034652693648260055
 -0.28653388635751365 -0.2606059779863106 -0.4159777033450646 -0.04637367026988974 -0.21648060013422168 -0.09391387732062109 -0.7580769045658584 -0.18319398708197993
 0.3395220170204704 0.20435327804061604 0.42671827450232525 -0.034651558682385265 -0.7578734716524621 -0.18345221160363245 -0.2019273091702228 -0.008116415931440565
809595959.5959595 0.01946312336551352 0.2937651289956887 -0.6493832301174901 -0.4269044429560024 -0.2728119035336193 -0.2719071386553776 0.33196927332580767 0.21492225413572238
 -0.6509252827377804 -0.4278529173655408 0.15372923588452678 0.06488850331867245 -0.41714664526860595 -0.052994479260856577 0.43114704725154285 -0.037165068562427954
 -0.27357889321130474 -0.27240094563788425 -0.41716638110847015 -0.05281243859739275 -0.21949207806476165 -0.1035723029651559 -0.7518879827942495 -0.19761800870629126
 0.33269531605652325 0.21535295178468497 0.4310627735985456 -0.03716044734609916 -0.7516674237730232 -0.19789233759085367 -0.1994358024374184 -0.01144382761037863
857070707.070707 0.0006884440943867272 0.302676639201708 -0.6321721671202885 -0.4468752547340505 -0.2573815396038465 -0.2838550836074352 0.32582597263043195 0.2254873486602078
 -0.6336727673144196 -0.44786404212507164 0.1490676244533175 0.06600958465786348 -0.41892582463110656 -0.058660953665338085 0.4342204136580577 -0.03851242586393119
 -0.25811908878233486 -0.28436815670018006 -0.4189343681184355 -0.058472991992208005 -0.21683312208746838 -0.11399788620679906 -0.7479800074863779 -0.2094904533779347
 0.3265405273509789 0.22593935016995323 0.43413770473330937 -0.03851152893835185 -0.7477724503758607 -0.20978915308614188 -0.19940706371393754 -0.013069574210288273
904545454.5454545 -0.018135477896605405 0.3106050232502228 -0.6150438597228874 -0.46620862608171587 -0.24348833825273672 -0.2952552315609285 0.318515602362114 0.2355409901847381
 -0.6165102217697134 -0.467246072941062 0.145232193596915 0.06678797224460163 -0.419462380919164 -0.06500054899018953 0.4390991363567866 -0.039609871377681655
 -0.2442069595314131 -0.2957973160712721 -0.41948000842494493 -0.06480219569515924 -0.21852796990112744 -0.12721064036384144 -0.7404860467077371 -0.2215972624711586
 0.31921769869396294 0.236014859064415 0.4390132404714122 -0.03960699671074066 -0.7402705719945074 -0.22189873191496354 -0.19632325165474804 -0.014509470553380126
952020202.0202019 -0.0375982470764021 0.31698088388556567 -0.5969159862115786 -0.4841948991772264 -0.22766866405930958 -0.3045015850041923 0.3114351456036559 0.24615334450401447
 -0.5983470719197995 -0.4852696135474694 0.14074566631708155 0.06677512615189321 -0.4209420604765767 -0.07183756751869064 0.44288324600854334 -0.04142008500092732
 -0.2283652268169166 -0.3050585010449234 -0.4209516860745285 -0.07162095319527083 -0.21785501577886446 -0.1361323534274768 -0.7354869040400303 -0.23495606720427745
 0.31212460976130113 0.24664873414901234 0.4427991086188831 -0.04141632764995756 -0.7352699246560566 -0.23528677975480167 -0.1952746530089275 -0.01760377647349708
999494949.4949495 -0.05742435542678258 0.32258925561390334 -0.5783389277948269 -0.5019808299622389 -0.21185951278922813 -0.31473155057990837 0.3040992531115173 0.25572404513290437
 -0.5797261952890209 -0.5030988900217543 0.13657246774338616 0.06714135865780502 -0.4214902312672464 -0.0781299380074786 0.4472963565028074 -0.04160964547703773
 -0.21252683935434735 -0.31531213584949785 -0.4214997251725076 -0.07790954640748707 -0.21603870430645702 -0.15002586945695626 -0.7287587609611346 -0.2454978165427772
 0.304774756810908 0.25624025208041207 0.4472086724926609 -0.041608408731383724 -0.7285494211441907 -0.24583489523085927 -0.1932889082302697 -0.018137200728568535
1046969696.9696969 -0.07724804960147143 0.3266893765021451 -0.5595973827903046 -0.518377561811885 -0.19632193304799955 -0.3224193963992435 0.29603212275049173 0.2657683547029454
 -0.5609501457335515 -0.5195336393491575 0.13264134668577346 0.0664590704852035 -0.42197706407580815 -0.08570501771288089 0.45224611745818266 -0.04295096554331418
 -0.19697042385373154 -0.3230179630205099 -0.4219894139113238 -0.08546366266792095 -0.21722248790712662 -0.1609980449764939 -0.7214075723821544 -0.2587272332672237
 0.2966932461518508 0.26630489286482417 0.4521577015907915 -0.0429475320825941 -0.7211874497267812 -0.2590836571211511 -0.19036095956220717 -0.02103845876750122
1094444444.4444444 -0.09763467760353985 0.3296712163327632 -0.5399025629728313 -0.534174047487638 -0.1790092246780834 -0.3302109430730238 0.28845269499409726 0.2753636018061069
 -0.5412097949642275 -0.535365352353393 0.12828050252942227 0.06591608719605893 -0.4226505158659235 -0.0926130206019141 0.45627822078703084 -0.04322087775364055
 -0.1796274173219883 -0.33082400168622966 -0.4226557025660713 -0.09236295998409616 -0.21368211990835476 -0.17291428755836066 -0.7155443573081269 -0.26970855888809525
 0.28909908343057217 0.2759203390373059 0.45618973892695863 -0.043220074036160294 -0.715333803355754 -0.2700866184848966 -0.18918321666300347 -0.022440096687782556
1141919191.9191918 -0.11779305110550335 0.3315919008858416 -0.5203904031858259 -0.5491999507701943 -0.1630715550549044 -0.337135418859884 0.27991004182067114 0.28456517601769543
 -0.5216570859840565 -0.5504298462266797 0.12471182667938203 0.06496690918937528 -0.4222066632173603 -0.10025497639544124 0.46174463307694225 -0.043372329851772806
 -0.16366535879186625 -0.3377684875757029 -0.422218719617402 -0.09999334690954127 -0.21357944300314963 -0.18707471826326502 -0.7068040302890367 -0.28120774912691987
 0.2805417791835585 0.28514216640989876 0.4616539954126486 -0.04337086432322089 -0.7065876738320158 -0.28159309697293783 -0.18549687126699677 -0.02389447524833287
1189393939.3939393 -0.1381853552833549 0.3320018909831155 -0.5001526844069252 -0.5629832779334399 -0.14555550817327706 -0.342241971425023 0.27158921691635984 0.2941368530096909
 -0.5013769225482482 -0.5642415998671652 0.12071764581525032 0.06340492142779351 -0.4224087042038418 -0.10819095380771351 0.4662564116682399 -0.04394408809430781
 -0.14612461928342818 -0.34288427304799274 -0.4224145139237583 -0.10791060825947675 -0.21115731097422374 -0.19786644372748047 -0.7001450694649016 -0.29341534560688187
 0.2722048977024815 0.29473304930288274 0.46616702878854904 -0.04394238118945013 -0.699926964737958 -0.29382897363364147 -0.1834970930861317 -0.026514505973998518
1236868686.8686867 -0.15858615841689483 0.3315565306724382 -0.4797234070961736 -0.5764200101730038 -0.12836642818188085 -0.3479178347647705 0.2629874851804436 0.30282872624749424
 -0.4809021952520518 -0.5777126656589799 0.11718995109384737 0.06209689568392861 -0.4215511436490767 -0.11578328127021634 0.4713953056445602 -0.04319585816119706
 -0.1289057839640692 -0.3485759136106419 -0.42155777892321616 -0.11549631002582872 -0.2077237842214177 -0.2129454935926606 -0.6917157507028797 -0.3034766130962661
 0.26358710265705365 0.3034444577369376 0.4713034682480945 -0.04319545455468186 -0.6915027060588909 -0.3038983740491925 -0.1804717094978982 -0.027095180974010057
1284343434.3434343 -0.17868169911458398 0.3296741119565467 -0.45925306985476366 -0.5885317840323372 -0.11138164879264728 -0.3512211815574818 0.25381487024339816 0.3119149104007703
 -0.4603907687829234 -0.5898536762657316 0.11393395311231351 0.059900652164761224 -0.42061634740069415 -0.12443697026137976 0.476858741213141 -0.043375747106451416
 -0.11189818820927493 -0.3518912185401126 -0.4206262368210174 -0.124130127693318 -0.20649674206631863 -0.2255113290817528 -0.683007330905949 -0.31577090261190705
 0.254398315575862 0.3125487305485618 0.4767651767837581 -0.04337481137641651 -0.6827853798526553 -0.3162123610228877 -0.1767759991145016 -0.029657469238606904
1331818181.8181818 -0.1989442213504431 0.32668997710728753 -0.4381523742970663 -0.6000422411232189 -0.09315156961347536 -0.35457897609249583 0.24501140096178367 0.3205557851226199
 -0.4392422288649473 -0.6013897655810551 0.11051178141777204 0.05787098245731939 -0.4195408550690719 -0.1324446098652765 0.4816351459270033 -0.04253035043126101
 -0.09363767682212454 -0.3552567777443183 -0.41954424619204383 -0.13212753451298986 -0.20101398423638367 -0.23910518987606014 -0.6752124255694375 -0.32598367010076545
 0.24557839007273574 0.32120907335266674 0.48154300686504925 -0.042531212340603634 -0.6749982133558466 -0.3264447598584812 -0.17434117326483708 -0.03079859817576117
1379292929.2929292 -0.21870741696282459 0.32266865877575934 -0.41735801781514503 -0.6107343486541997 -0.07625379677880749 -0.35686688836591623 0.23536797674695206 0.3289032228867008
 -0.41840497462991344 -0.6121105236418123 0.10788862566381043 0.05544956798932325 -0.41739731394752605 -0.14118012886397155 0.4876021525518885 -0.04165288186548755
 -0.07671363581715676 -0.35755669714363697 -0.4174075430257778 -0.14084945469819968 -0.19833689289564976 -0.2545561603960688 -0.664988249328703 -0.33690784769032694
 0.23591803870389627 0.32957493392914594 0.4875075150406903 -0.0416535025059725 -0.6647696963923961 -0.33737971492128344 -0.1697284631572905 -0.03213276783935791
1426767676.7676766 -0.2383594168229648 0.31725019729642556 -0.3960724602221693 -0.6202928295755038 -0.058078548367825486 -0.3575683890290278 0.22592686068427204 0.3375217255172393
 -0.3970747282740079 -0.6216900628215095 0.10501539653043297 0.052597346094788534 -0.4156501184606988 -0.14999080177248092 0.4927081591635028 -0.04098678230361326
 -0.0585126569457023 -0.3582621297367543 -0.41565612221038684 -0.14964180446588396 -0.19324978003787557 -0.2671734346830844 -0.6565255152487983 -0.34812963449498113
 0.22645913073004736 0.33821168565388665 0.4926128094372099 -0.04098692019818715 -0.6563069931180526 -0.3486278230976268 -0.16655268280551386 -0.03425750820357849
1474242424.2424242 -0.25771049597798046 0.3110046493516534 -0.3748180805762211 -0.6294488061644711 -0.04050587460849782 -0.35855922871018037 0.2161682343290753 0.3453897844297735
 -0.37577258623595405 -0.6308704930288253 0.10273627057525894 0.049969479070965155 -0.41271813709728367 -0.15855137623746363 0.49845043166894953 -0.03919547389845508
 -0.04090947547126239 -0.35926057941426026 -0.41272551689340375 -0.1581937315760006 -0.18716062671259076 -0.2836183679065854 -0.6462092898220728 -0.35766832105188145
 0.21668250054979885 0.34609868740588673 0.49835391840815146 -0.039197554319462015 -0.6459947145443602 -0.3581782626034458 -0.1622516293824623 -0.034662740928860736
1521717171.7171717 -0.2764957825529823 0.30344797879811486 -0.3536480196377563 -0.6373650535391103 -0.023148901662194365 -0.3573055060717885 0.20592772285427335 0.3536194932519195
 -0.3545594536537138 -0.6388072878498392 0.10076154890569122 0.04662372707537095 -0.40967060830903634 -0.1679457623978468 0.504366758160819 -0.03817023131280239
 -0.02352821075240759 -0.3580120605400148 -0.4096814822405835 -0.1675683990738971 -0.18265876016385457 -0.297741449683227 -0.635826486004742 -0.3690919547278197
 0.2064232514678042 0.3543465075582287 0.5042684025079163 -0.038170865630501385 -0.6356044906482952 -0.3696224799783892 -0.15745552733801169 -0.03674774627217137
1569191919.191919 -0.2951228524324584 0.2948816577634862 -0.33210980820965097 -0.6447183574511155 -0.00498087525520253 -0.35607199707592224 0.195947169668677 0.36142685252886697
 -0.3329729563729446 -0.6461785040923536 0.09882531444459655 0.04352736569285278 -0.40619659536541886 -0.17664611938488822 0.5097739326124746 -0.036132881483460104
 -0.005330428323012148 -0.35677871573012826 -0.406202630775124 -0.17625613822332425 -0.17409127979625777 -0.31293580941128224 -0.6258713197993789 -0.3785228332927208
 0.19642306852673147 0.36217091896957976 0.509675338058711 -0.03613578768602808 -0.6256562273619746 -0.37907410923989193 -0.15353794188612177 -0.03741406604231843
1616666666.6666665 -0.3130180122781862 0.28537206307623475 -0.31100054507095726 -0.6512602962984305 0.011831046391358957 -0.353626135590317 0.18517937828990977 0.36902892855238717
 -0.31181924890993573 -0.6527399585438708 0.09769452455041346 0.04010424110009479 -0.4016741836895865 -0.18600743494534436 0.5162032860407715 -0.03411741352958901
 0.011507272948288487 -0.3543365651117574 -0.40168717140688587 -0.18560269176013902 -0.1678245285357879 -0.32966588725218715 -0.613773317382567 -0.38879293315041225
 0.18563653595181462 0.36979065523771204 0.5161021507806964 -0.03412114084584316 -0.613553571731084 -0.3893573067787256 -0.14765629540521227 -0.03833448818934572
1664141414.141414 -0.3305257814881956 0.2746135278817598 -0.28959771363836 -0.6567854258896365 0.02963981141435281 -0.349763129168241 0.17456412480259523 0.3768460556802953
 -0.2903704836672145 -0.6582784160422325 0.09644796132206723 0.03644697912452961 -0.39732505189288697 -0.19520315661698506 0.5218473512353126 -0.032134392340375025
 0.02934130305442969 -0.3504719904172108 -0.39733614348979435 -0.19477980817854232 -0.158933919985369 -0.34386879559671724 -0.6031292411305366 -0.3990046694656784
 0.17500165866775866 0.3776249541756129 0.5217467004572559 -0.032138500762437204 -0.6029102687452759 -0.39959519270025873 -0.14300762666262207 -0.03971956295840724
1711616161.6161616 -0.34747838300657924 0.26311726658438067 -0.2684168932335323 -0.6619043185832494 0.0465839738176156 -0.34598030733302765 0.16356413137108436 0.3840195667719443
 -0.2691426349213112 -0.6634134825155513 0.09589369674453858 0.03304811769121914 -0.3916639219691974 -0.20416528498102543 0.528151049356268 -0.029153710089478833
 0.046313950046717484 -0.34668884401420336 -0.3916769869254302 -0.20373151860990224 -0.14894547394123533 -0.36156081444503596 -0.5904953711168447 -0.40785980501547786
 0.16398101700829312 0.3848164558123113 0.5280484525630177 -0.029159297822919414 -0.5902792387355649 -0.408464764721186 -0.13712236067615663 -0.03956824888331681
1759090909.090909 -0.3636522479508444 0.2504553652457005 -0.24743814997378735 -0.6658802522049392 0.06323986925045534 -0.34004366071804765 0.15209895320814523 0.39154291649423484
 -0.2481207354453965 -0.6674018583759743 0.09566353140881834 0.029122294161881824 -0.3858354827351259 -0.21369833391397586 0.5345232745538824 -0.02679007862165
 0.06299353630347289 -0.3407499470938854 -0.3858526654416213 -0.21324425205015887 -0.13996915188716313 -0.3769655744845302 -0.5778945215907528 -0.4182728799364838
 0.15249540025186314 0.3923565764418242 0.5344192065627991 -0.026795611359191566 -0.5776729065291873 -0.41890013270131005 -0.13085334286673206 -0.04081388147952192
1806565656.5656564 -0.37940326807091596 0.23691123613832238 -0.2263147828608037 -0.6693598768650447 0.0803085903839357 -0.33409428945681274 0.1407612907766797 0.39866527421715947
 -0.22694913436628994 -0.6708918328804204 0.09562306546598592 0.02556992642138138 -0.37931746955958257 -0.22243109765332233 0.5405384620668571 -0.02339182674101595
 0.08008898424956856 -0.3347943605400049 -0.37933236256083647 -0.22196395117123294 -0.1268881210653702 -0.3934425161836268 -0.5652505874083683 -0.4267112677270673
 0.14113519691136459 0.39949639029190637 0.5404337432247935 -0.023399222767678876 -0.5650342593461384 -0.42736049292643935 -0.12514062076548493 -0.040569087333397216
1854040404.0404038 -0.39422990172667094 0.22253948376224614 -0.20573694432393186 -0.672063615160763 0.09592899533528991 -0.32681330585210244 0.12861633728312458 0.4056529624992527
 -0.20632735914330586 -0.6736068618489702 0.09638515744579079 0.02179889836235506 -0.37174772500028436 -0.23169259444769222 0.5474579816525038 -0.02002596292337547
 0.09573428569240129 -0.32750910372708686 -0.37176893797080346 -0.23120958167147898 -0.11562372507197002 -0.4111344687362354 -0.5506117129980296 -0.43602461532109205
 0.1289685081104289 0.40650144286034423 0.5473510654531735 -0.02003453038964294 -0.5503919884610675 -0.4366905609707134 -0.11759332513606681 -0.040565322415157694
1901515151.5151515 -0.40844198822149613 0.20707515699682025 -0.1850418341529344 -0.6738735233149259 0.11224695220239078 -0.3182359949671059 0.11652401027538434 0.4128136675988584
 -0.18558691666015684 -0.675421928178229 0.09712673624090043 0.01801316886589275 -0.3641310128777044 -0.24050302127962817 0.5536658766827945 -0.016506989845082615
 0.11207490966033846 -0.3189226909507536 -0.36415193447354877 -0.24000048903358454 -0.10134870558602269 -0.42642645330869516 -0.5370838534329947 -0.44490745146724303
 0.1168529334704433 0.4136787196396207 0.5535583642312748 -0.016516260555664308 -0.5368641323653821 -0.4456004420146558 -0.11109505119067993 -0.04067816261157714
1948989898.989899 -0.4218847679800961 0.19097596241575193 -0.1647451561050488 -0.6753045058141761 0.12740241541688233 -0.309559563962203 0.10392039903911927 0.41940504141759943
 -0.16524509796958137 -0.6768614306440857 0.09862442842019518 0.014575448763719301 -0.35506736171931713 -0.24900965065908953 0.5605673429948359 -0.01204444937186217
 0.12725473569853032 -0.3102375305880237 -0.3550917600416142 -0.24849443211526115 -0.08573622688971354 -0.444893323087218 -0.5213523042914281 -0.4526150954404949
 0.10422559473133022 0.4202880008089603 0.5604584496711036 -0.012056002209153587 -0.5211351619765594 -0.45332567412849145 -0.10323683465826629 -0.039310183702605014
1996464646.4646463 -0.4343623215839544 0.1738577719059671 -0.14477293433948263 -0.6756997648372791 0.14211066388042817 -0.29878603868600156 0.09078708957460001 0.4263286794117111
 -0.14523037401569816 -0.6772604632025743 0.10044275521706729 0.010829462556006171 -0.34576154666350456 -0.25776091749836566 0.567464846731768 -0.008023687232972119
 0.14198376705001378 -0.2994542525866043 -0.34579099125262774 -0.25722519033932717 -0.0704764771385314 -0.46093572953843026 -0.5056310105054469 -0.4614943701529937
 0.09106802383960796 0.4272282065218364 0.5673546898234779 -0.008035415642938292 -0.5054083431886667 -0.4622300009432526 -0.09505593592452062 -0.039012972567404144
2043939393.9393938 -0.4461965760631172 0.15597942212939414 -0.12486377115685943 -0.6756832174626571 0.15679394556886067 -0.2879575041414 0.07758987359909073 0.4328487068688296
 -0.12527632884886955 -0.677247063963967 0.10255952493597692 0.007624833118196241 -0.3354986463864605 -0.2655165009926842 0.5741417381172337 -0.002881923479004537
 0.15668874267523508 -0.28861247119736566 -0.33552805669567043 -0.2649653723601636 -0.050802377767462555 -0.4779544379453184 -0.48934630633070036 -0.46828382340967695
 0.07784476863586613 0.43376544529150585 0.5740309844786501 -0.0028952586661507834 -0.4891282019786973 -0.4690434566298876 -0.0871398078904671 -0.037041251426455854
2091414141.4141412 -0.4569200291586785 0.13737784096245811 -0.1056345835669146 -0.6749514412074464 0.1698206737263271 -0.27568431097650337 0.06347002831288207 0.43926700735041757
 -0.10600544046896779 -0.6765184943407385 0.10545301633523713 0.004364157745776046 -0.3241470770963539 -0.2735645446154388 0.5816392645369605 0.002292195078828229
 0.16973527786985018 -0.2763262399879905 -0.3241845719349415 -0.2729964868847952 -0.03233560233650303 -0.49575608878621863 -0.47107117941122745 -0.47582397195366444
 0.06369852676380872 0.4402006747246634 0.5815257413724975 0.0022775487001196236 -0.4708491237780391 -0.4766039396541381 -0.07746425920140591 -0.03516854185649604
2138888888.8888888 -0.46682035245630266 0.11781990959693323 -0.08647145996739652 -0.6734592610283789 0.1831469023105759 -0.2621998216106061 0.04921712451386271 0.4457903753850417
 -0.08679963160908502 -0.6750253361203967 0.10837950679306721 0.0013492562060059205 -0.3125077631097336 -0.280768950814094 0.588491974919424 0.007864917705593036
 0.18307807100916124 -0.26282597223897947 -0.3125463766433792 -0.28017925502133734 -0.010187962177977905 -0.5110423598949982 -0.4534679642823091 -0.48242184102580893
 0.04941787226304311 0.446740339310607 0.5883777456942421 0.007848654083216732 -0.45324541535870766 -0.48323114625826347 -0.06866622793339013 -0.032966883013214994
2186363636.363636 -0.47573713102080684 0.0977162906124949 -0.06790207702920899 -0.6716529175970699 0.19488382001907265 -0.24845568831967488 0.03422672799778931 0.45175786972403487
 -0.06818854456256047 -0.6732200860927524 0.11208894730763345 -0.001159959234242938 -0.2992561337116459 -0.28745414788409335 0.5960770908416917 0.014440339530259172
 0.19483264980784565 -0.24906510548262423 -0.2993006781522404 -0.2868502088493651 0.01382088871794476 -0.5290501740561933 -0.4333265192883433 -0.487780216524896
 0.03439864615726098 0.452725155953353 0.5959615834550097 0.014421475992746005 -0.4331054237185512 -0.48861118485667254 -0.05837576806170804 -0.029146443087457976
2233838383.8383837 -0.48349021398737824 0.07670099552786583 -0.04981506616891587 -0.66894005390801 0.20583383720903112 -0.23265687513198122 0.018519339069869845 0.45798664925176297
 -0.05006276768901189 -0.6705044832346382 0.11608326106657314 -0.003698970002508225 -0.28564505269977375 -0.2939009406213212 0.6035928036996897 0.02084490613091395
 0.20579650232661204 -0.23324832624802586 -0.28569659405982556 -0.2932753409524585 0.038419666945965575 -0.544162941646333 -0.41301605820661963 -0.4936940039189275
 0.01866182362706339 0.45897056692504495 0.6034758048590169 0.020825361432832527 -0.412789458684992 -0.49455383250917684 -0.04780297458711936 -0.0259140784021614
2281313131.3131313 -0.4903513993817691 0.05501842977411147 -0.03203258815096712 -0.6659418008432488 0.2161465515614387 -0.21677108669215864 0.0024381108396048304 0.4637306031295202
 -0.0322387836460111 -0.6675027470465764 0.12042902263462187 -0.005446634511868517 -0.2707735982014211 -0.29895986829582355 0.610999711294634 0.028592108104866204
 0.21612102985760426 -0.21734166387640566 -0.2708282181349037 -0.29831713855375136 0.06819164759694661 -0.5598363754857231 -0.39150231954875203 -0.49708601055029306
 0.002548047126834322 0.46473095346302223 0.6108824958751617 0.028570662224521183 -0.3912782410431412 -0.4979742605293978 -0.03724017214811705 -0.02059589186052174
2328787878.7878785 -0.4958699238024269 0.03268289068025533 -0.015123229017894861 -0.6623408863439293 0.22433724115921777 -0.19935746582364872 -0.014838489597575128 0.4693046520922471
 -0.01529251287474309 -0.6638987769490239 0.12548279880671181 -0.006996183318646197 -0.2547274636229495 -0.3038346566754482 0.6191393973281054 0.03659989236381003
 0.2243219724045918 -0.1999073927947149 -0.25479262419424326 -0.3031727266666359 0.09774917547961012 -0.5754457461523581 -0.36782175333052497 -0.5007121646668173
 -0.014761109050521448 0.47032204572540576 0.6190195218654497 0.03657606119491799 -0.3675919387733117 -0.5016266761988554 -0.02498502800780699 -0.014963076811179844
2376262626.262626 -0.5002952005557578 0.00947703056846294 0.0014734573814143722 -0.6581722451284275 0.23214328308345258 -0.18084183477209584 -0.032597505884922405 0.474800501767321
 0.0013417559537247721 -0.6597232675637651 0.1305598240565778 -0.007934067165740221 -0.23810333695159816 -0.30718107274502976 0.6266571476190007 0.04542740448017496
 0.23213442288467692 -0.18136868214106017 -0.23817326278285114 -0.3064977011959402 0.13222757868436327 -0.587808301000023 -0.3442169390112844 -0.5024302889504495
 -0.03255568928283085 0.47583423229008626 0.6265365563033499 0.04540193626252225 -0.34398492686545784 -0.5033788998777972 -0.013492514069326722 -0.008262186179104306
2400000000.0 -0.501958690305241 -0.002268094080215765 0.009316435755810834 -0.6560201089798029 0.23477186087123023 -0.1713479107113833 -0.042076452499315506 0.4772665587343136
 0.009201858927329578 -0.657569058043449 0.13351310060389898 -0.00818879036910026 -0.22899549311754058 -0.3087201911719888 0.6309645279283116 0.05020680592982411
 0.23476555985009995 -0.17186267560688803 -0.22907177538038628 -0.3080277906491504 0.14948528410972614 -0.5952021424419199 -0.33081523007643104 -0.5030335331153574
 -0.0420527232606806 0.47830856049151393 0.630842716337245 0.05017958722755252 -0.33057977279728457 -0.5039949529111379 -0.006646292533078472 -0.004266875020328135
2423737373.7373734 -0.5034260616650813 -0.014229901284528657 0.017195250079151125 -0.6538442271625352 0.23758206499927295 -0.16199116099359911 -0.05151465320377623 0.47958811771242665
 0.01709887852323457 -0.6553906109925344 0.13637333216106964 -0.008070713917503212 -0.21965593406337966 -0.3094273552267017 0.6348924231810152 0.05556049722436604
 0.23757656082590062 -0.16249368126617045 -0.21973471972788133 -0.30872715979993426 0.169702671624528 -0.6017759918952651 -0.3175703029421201 -0.5022314046629526
 -0.05151039176548476 0.4806385165791429 0.6347703903217142 0.05553174880684515 -0.31733571256353515 -0.5032080311207889 -0.00044010219478707747 0.0006064200868005319
2471212121.212121 -0.505065912149434 -0.038796708143834756 0.032168391497196025 -0.6488471659053322 0.24144302978255255 -0.14122640018428126 -0.07156965364324482 0.48437204180573934
 0.03210500277370661 -0.6503849861228805 0.14234526572545542 -0.007800348763080954 -0.2006885205457009 -0.3104918801245441 0.6429166698104939 0.06606299954686971
 0.2414377677558023 -0.14170405703849165 -0.2007778160898345 -0.3097678090912141 0.20940091049271647 -0.6113692039323098 -0.2903919144890302 -0.5012356887711864
 -0.07160488725465797 0.4854380455061294 0.6427926131579494 0.06603230707005762 -0.2901491071294244 -0.5022476090055074 0.012753253939823569 0.009820082799128063
2518686868.6868687 -0.5054012134924797 -0.06399017034513925 0.04647286394837743 -0.6438405103264522 0.2435262453229568 -0.12051425065309064 -0.09256823931265129 0.48832063474645127
 0.04644265771829638 -0.6453709667847416 0.14859992464887614 -0.006290234160773748 -0.1801322488398365 -0.30919330017937446 0.6508051901850339 0.078483464824391
 0.2435153950371099 -0.12096533458218282 -0.18022935134990187 -0.3084499361964546 0.25593139005783194 -0.619867893184011 -0.2612331941774046 -0.4963271976312571
 -0.0926468253209774 0.4894006177370254 0.650680642807727 0.07844964439111883 -0.26098723058945467 -0.497374343786143 0.025994952504307896 0.022126785792294767
2566161616.161616 -0.5039275484103992 -0.08982687362979004 0.0595471323905875 -0.6385500015600298 0.2423375887348789 -0.09846041459641729 -0.11535597627765908 0.49167722588761137
 0.059546090617415 -0.6400729316501791 0.15533597627068696 -0.004076312892845431 -0.1583266186970064 -0.30648111831938857 0.6591553168339822 0.09182344564615565
 0.24231705337497692 -0.09888432305110754 -0.1584389447636169 -0.30571665428775474 0.3041497449767332 -0.6257658622187507 -0.22960775393880525 -0.4898993602469149
 -0.11547988261279776 0.49277255411677995 0.6590290722901453 0.09178608695759904 -0.22935112866949348 -0.4909807929786929 0.040607297334857954 0.0358886335936455
2613636363.6363635 -0.5007891258176049 -0.11650180595844521 0.07187586202098116 -0.633158176393222 0.23924253499278558 -0.07580121521258279 -0.13933925106797843 0.49430410289926985
 0.07190277493519526 -0.6346709098474995 0.16185763483934626 -0.0005798795815517575 -0.13572902164911188 -0.30057994710558145 0.6666093808272278 0.10693770946603696
 0.23920530334603982 -0.07619934992279079 -0.13585231002978362 -0.2997915611694402 0.35966589454970466 -0.6253356245535838 -0.1974537305367341 -0.47899898658363865
 -0.13951300467176714 0.49541138859378603 0.6664818601826279 0.1068976650419361 -0.19718781321920748 -0.48012244264364085 0.054130271586786606 0.05235638483711609
2661111111.111111 -0.49563323954315863 -0.1436678554831756 0.08282385066142973 -0.6281543290992729 0.23194137610271276 -0.053354855731117416 -0.16533533624240224 0.49540946891426907
 0.0828755302973374 -0.6296605201893196 0.1687505489003946 0.004409374298593431 -0.11129716344162198 -0.29171376633461593 0.6743263116873325 0.12434899116744617
 0.23188015851206165 -0.05372640476084554 -0.11143697079344113 -0.2909060535578511 0.420498621479074 -0.6222857931518947 -0.1619113626353091 -0.4633808511428505
 -0.1655634291421154 0.49652810997960994 0.6741977505907492 0.12430413754040472 -0.1616331566126267 -0.4645422938958194 0.06862257855833959 0.0727061919144545
2708585858.5858583 -0.4881013404052131 -0.17165328451879291 0.09249649336142468 -0.6232614256867692 0.22092836821847187 -0.030076802171668846 -0.1933854743487894 0.4953397011052564
 0.09256907470500406 -0.6247585007455765 0.1752096477941619 0.010726483149654607 -0.08661365190828595 -0.27901818463914313 0.6810124301888727 0.14351255529081391
 0.22083659195873884 -0.030424783257917077 -0.08677276942489359 -0.2781855567249936 0.48633773584091344 -0.6088959529048894 -0.12597100465152178 -0.44280778291659045
 -0.193671596151849 0.4964668233278584 0.680882495141595 0.1434638116533264 -0.12567339288583895 -0.4440143970649547 0.08208978546651474 0.09576400754091204
2756060606.060606 -0.4780898533728583 -0.20015329381945127 0.10086187351849578 -0.6194257960809211 0.20532641918915526 -0.008476398542825149 -0.2234797485449528 0.49277757627247737
 0.1009539402798843 -0.6209174488526866 0.1811702361159807 0.019348916249250534 -0.0608410073149199 -0.2607063139937563 0.6864722010330009 0.16623759143808248
 0.2051917854420134 -0.008804479761768928 -0.06101889544122351 -0.25985256612065366 0.5616748923802495 -0.5865218565301265 -0.08839100020602136 -0.41315368810736147
 -0.22383099463050585 0.49390875109357624 0.6863424078588691 0.16618393440914558 -0.0880740992074639 -0.4144053518213093 0.09401854344133576 0.12474865098334734
2803535353.535353 -0.46474124137297224 -0.22907230444737392 0.10738290630484967 -0.6167721370976111 0.1832307317367887 0.011919583459153175 -0.25648589048859954 0.48731393110344345
 0.10748757171436742 -0.6182604964720694 0.18630258882722756 0.029912594588762102 -0.03531040720900542 -0.2367218304631584 0.6904676181991041 0.1918351224698951
 0.18304300914753177 0.011606571464158947 -0.03551649959523747 -0.23584648966161237 0.6406939036374896 -0.5501034599804416 -0.05028998503470842 -0.375182848295356
 -0.25690773854505977 0.4884450661789806 0.6903376343778577 0.19177573533642714 -0.049942152248623924 -0.37647998430471186 0.10441707890865869 0.15856308194592503
2851010101.010101 -0.44770329840218465 -0.2582797803429203 0.1126077798448263 -0.6161708975814206 0.15528773141892532 0.028635023954425777 -0.29172932047650474 0.47769097078272277
 0.11272350593368965 -0.617660136560947 0.18927153368774788 0.04325525158480971 -0.01168217735055495 -0.2038708367667645 0.6906187160737126 0.22163505855594276
 0.15503337380547835 0.028323851316949242 -0.011916141101281183 -0.20297427671662696 0.7276519937039168 -0.49139370887445477 -0.015419937556227389 -0.3234694206589838
 -0.292228979557421 0.4788120214486359 0.6904891345063796 0.2215699994173725 -0.015036234202485227 -0.3248161707366984 0.10918011479035204 0.19930471022071075
2898484848.4848485 -0.42592433783810596 -0.2868387967043859 0.11621803865410522 -0.6190063653813986 0.1188167077486676 0.03843304326030068 -0.3295913103823403 0.46161734477521804
 0.11633943853950979 -0.6205049122027294 0.18954272242644798 0.05953941661959062 0.008479523785839979 -0.16114115168410253 0.686296544500066 0.25616218369949856
 0.11847910635835013 0.03810755827545019 0.008208797095781237 -0.16023014064034927 0.816113756745355 -0.40770879085485767 0.015006183386554364 -0.2556791558558268
 -0.3301763978350451 0.4627162193761807 0.686168785377989 0.25608942659608835 0.015438393749474418 -0.2570699829815008 0.10750660815753567 0.24828633332341785
2945959595.9595957 -0.3982972451283324 -0.31387661101259895 0.11927137189281864 -0.6263345797963712 0.07493437644877361 0.03804473913884749 -0.36866575971281357 0.43723952470007643
 0.11939461608615196 -0.6278526589823271 0.18451380060910447 0.07827156276546957 0.018961365186991902 -0.1062642038593028 0.6732810485417453 0.2944486612859968
 0.07450323483894346 0.03767689058074653 0.018646592357022866 -0.1053406860562527 0.8967980582509434 -0.28276716712413286 0.03054565608886989 -0.16897762510056766
 -0.3693405607934248 0.43829900682269995 0.6731562772924985 0.2943685895278082 0.031042640373932857 -0.17041079870084855 0.09264105034465114 0.3038174700407285
2993434343.4343433 -0.364135228431115 -0.3367751775079641 0.12380507690805877 -0.640643504320006 0.02564932659438988 0.018863065663056667 -0.40567868896680204 0.4005896743006431
 0.12393412360187278 -0.642198012454019 0.17171463038433446 0.09883537040250003 0.013110126588190685 -0.038212610914380635 0.6474072884362804 0.33590599809108945
 0.025116341006265683 0.01840765857750254 0.0127478810935634 -0.037292168943577786 0.9555594912872621 -0.11046990888405304 0.020411455023216576 -0.05998347990514403
 -0.4064436140304893 0.4015820408621894 0.6472898759484847 0.33581849504627276 0.020986901155053705 -0.06144196945623724 0.05751559046179375 0.3655284524897052
3040909090.9090905 -0.3232691522496827 -0.35163060008284824 0.133589832927668 -0.6628944421988112 -0.021857822952580194 -0.025799029825366287 -0.4346338873164497 0.3496343459159301
 0.1337327084743167 -0.6645074426900259 0.14804431583140823 0.11673274831294109 -0.021890776258776605 0.03670830855860937 0.6037301481826325 0.3733397396345028
 -0.022477425991987727 -0.02639868050923457 -0.022307133970165507 0.037609784990976 0.9523852326662214 0.11325392456885638 -0.03544450789252601 0.06092226197309416
 -0.43547578754538496 0.35052722703802963 0.6036213939560136 0.37324474935788143 -0.0347717012511721 0.05946377695109843 -0.005825799090611257 0.4221140669362261
3088383838.383838 -0.2796142225655346 -0.35342606010700994 0.1559873520024668 -0.691611485082137 -0.0482450923155372 -0.10124305061529128 -0.4436969870688312 0.28649598265871506
 0.156173713081613 -0.6932988158826405 0.11185131553665291 0.12472366470086657 -0.09821382129030429 0.10326982181593428 0.5388760522502333 0.39508375779804844
 -0.04889214378994001 -0.102052728235401 -0.09867157153544437 0.10412837220335659 0.8445114421019341 0.366149314796934 -0.1587797505347547 0.17015879624501126
 -0.4445760574380816 0.28725584773159335 0.538780697591422 0.3949863633425122 -0.15801323226998013 0.16874212022459517 -0.10388557121943114 0.45478647556176555
3135858585.858586 -0.242012269085215 -0.3392881112411526 0.19678003992096949 -0.7185626335172209 -0.030341683168859105 -0.19554196599121598 -0.4228541616846181 0.223968985042699
 0.19705407976694167 -0.7203287395516266 0.07007949723172466 0.1124801971657067 -0.21254820129840563 0.1288899970423884 0.46366668198829036 0.38431694507693887
 -0.030907777675219347 -0.19658981411411924 -0.21302344225568348 0.1296822233343823 0.5965091478058001 0.5666799693207326 -0.34484833425562306 0.21556964392769082
 -0.423707009986535 0.22458893203584201 0.4635865674981916 0.3842234021071468 -0.34401573079577175 0.21424800053082488 -0.22002262019946858 0.43624895058905383
3183333333.333333 -0.22119886341700282 -0.3162798268798107 0.25371112177551225 -0.7291460055622966 0.04419353176665728 -0.27142846273570564 -0.37513842955203197 0.1856643358074471
 0.2541143248145121 -0.730954557286729 0.037935196301487485 0.07647507495170175 -0.33319796369643795 0.08720417760513052 0.402432067479484 0.33415241596958023
 0.04383391426777013 -0.27265439668944386 -0.333647492513345 0.08793528261280527 0.2532392290326171 0.6180977754166411 -0.5446149347729785 0.15170208253745396
 -0.37589780796862504 0.1861886460166561 0.40236262124907035 0.3340697622312497 -0.5437839130989016 0.15049049008581636 -0.3152993262218646 0.353599807811543
3230808080.8080807 -0.2188973751603612 -0.2985412012943665 0.3121775159940507 -0.7163209493079273 0.14982595607025423 -0.29512256006870385 -0.32352305186549074 0.18390845741609557
 0.31272223148549755 -0.7181173449166494 0.029972400718475692 0.02947451104693765 -0.4107503473561506 -0.009956910823839763 0.37925324457818477 0.2646049305427845
 0.14972749757611792 -0.2963968251821197 -0.4111422013754369 -0.009260444321039788 -0.055310962156975084 0.4843441066956881 -0.6777347694338215 -0.003827422766758704
 -0.32417000586872985 0.18441458764179794 0.3791863082551665 0.2645362496778285 -0.6769763122468994 -0.004955244270052374 -0.3500461121914908 0.23807804976131705
3278282828.282828 -0.22449121153809065 -0.2954085015662738 0.3576887383471667 -0.6863708885464264 0.24462304382758773 -0.26363355041577247 -0.2918069195723697 0.2090951643260215
 0.3583479413772172 -0.6881126642882733 0.04515780110373843 -0.011580244215409548 -0.4272058975087657 -0.12130414886674534 0.39375046170976746 0.20296722870354725
 0.24474619294157604 -0.2648349983078682 -0.42754028220077395 -0.12060125437528003 -0.23913700678681807 0.24350795615293844 -0.7118871656311127 -0.18632996929832257
 -0.29237576347555133 0.20964866223820078 0.39367945363029905 0.20291006268668574 -0.7112205262485874 -0.18743521544673192 -0.3228709665165532 0.1337789197910972
3325757575.7575755 -0.22747626100665927 -0.305574299224781 0.38760634665783034 -0.6514157413061648 0.3080342161962426 -0.20213339332036118 -0.28505112632702473 0.24198086492348161
 0.3883450903543781 -0.6530841179773809 0.0719073332070035 -0.03771365207458087 -0.3984255562724268 -0.2120485571194864 0.4274680836349376 0.16434966220361272
 0.3082962991090155 -0.2032033523439339 -0.39871405008014243 -0.21131265719596928 -0.28948868116216486 -0.005209828386729806 -0.6718535147651186 -0.33833121391566495
 -0.28559440529986396 0.24260547328044774 0.427389533622173 0.1642991941882586 -0.6712740945637482 -0.3394690568571961 -0.26307680369747877 0.06603003162437782
3373232323.232323 -0.22280441950030194 -0.32271177406397156 0.4053750846897044 -0.6192096750399391 0.33830521906130917 -0.13325766353593624 -0.29790586371831435 0.2696308074117597
 0.40616497169571736 -0.6208100578167798 0.10131194530259484 -0.05008407648458933 -0.3470186219670197 -0.2740512865270274 0.4661678370748596 0.14764232134815813
 0.3386321203451813 -0.1341878316624147 -0.3472848049417202 -0.27327518002410733 -0.2529112216712584 -0.21626604377386668 -0.5924126180173835 -0.4448403828049356
 -0.2984683298572054 0.2703232404973023 0.4660809773118984 0.1475935004463952 -0.5918932699099443 -0.4460335613984638 -0.19357677971886386 0.034347050911273304
3420707070.7070704 -0.21001998850272832 -0.3421658130100359 0.4162187815729648 -0.5918373359048736 0.3451306444133656 -0.06791293456964179 -0.32228597711917933 0.2882568736847477
 0.4170399545070539 -0.5933774490791961 0.1280020383760772 -0.052860467602761675 -0.2902113683969949 -0.3102981758679865 0.5008870570141725 0.1461436048151452
 0.3454711434998009 -0.06872264176442637 -0.29047013488013795 -0.30947557274928716 -0.17058455791873312 -0.37288184840204297 -0.5022672029431813 -0.5105908432939311
 -0.3228944492785598 0.2889998241173354 0.5007935724943651 0.1460940928107375 -0.5017787494989032 -0.5118592705851291 -0.12923359732725892 0.028104884975983808
3468181818.181818 -0.1906306460729033 -0.3605983413785575 0.4235895993735698 -0.5699018913301964 0.33587986075894743 -0.012217319018553356 -0.35240264699452445 0.296746100672396
 0.42443411731375585 -0.571394728461574 0.1509540558110216 -0.049051891620930224 -0.2341885571361742 -0.3269114657190267 0.5296467252388238 0.15534378890634312
 0.3361996456150987 -0.01293148521192636 -0.23445000762546328 -0.3260490434617577 -0.06462931742215297 -0.4854828582659238 -0.41174811291000885 -0.5436797393207672
 -0.3530746283145977 0.29751996948850506 0.5295476965167455 0.15529160884646395 -0.411274656536806 -0.545022889188581 -0.07389944382070669 0.04053305690082623
3515656565.656565 -0.16572286528216468 -0.376428077075619 0.4292684346285098 -0.5521612582997824 0.3157870605070456 0.034653218202484244 -0.38529521833224833 0.2966438300274988
 0.43013075453457694 -0.5536168010424154 0.17000634263635123 -0.04178598953397593 -0.1832086584986494 -0.33053162103203976 0.5522527113921594 0.17005521296809253
 0.3160698243104887 0.03401140296422286 -0.18348454595970493 -0.32963157803888593 0.04538809969192627 -0.5609240236856337 -0.3274328764671151 -0.5555055296383841
 -0.3860381413062725 0.29743135455976016 0.5521494107909115 0.16999915158098705 -0.3269522344228279 -0.5569212642665398 -0.027882099150087512 0.06325059049217546
3563131313.131313 -0.13693487010413222 -0.38892146789725524 0.43500039743578295 -0.5379841164213314 0.2900265152709992 0.07186386680490892 -0.41810150061062684 0.28900162303684557
 0.4358791927549736 -0.5394090842403727 0.18519370796068685 -0.03195246676714078 -0.13796422543967865 -0.3234942006730241 0.5683656505555644 0.18880317141180153
 0.290261214927761 0.07126775011945304 -0.13825613152918648 -0.32256084701724763 0.15852758813727524 -0.6053010350035383 -0.2518680173194867 -0.5491854092316362
 -0.41891914077299525 0.2897850088789149 0.5682602194936853 0.18874303501152367 -0.25137103956365014 -0.5506738984958554 0.007638944442973186 0.09377355097057909
3610606060.6060605 -0.10514048251629847 -0.39725294482571943 0.440933589647106 -0.5267437547066922 0.25931888314910495 0.10022952928604188 -0.45020629414241264 0.27457670528751593
 0.4418288707733508 -0.528147349183427 0.19760565356984286 -0.02085268596743167 -0.09795501628901163 -0.3100611892227129 0.5798783270849535 0.20961642459733118
 0.259499519151381 0.09966223992914598 -0.09826994560285782 -0.3091011791567054 0.26718458732589 -0.6294068317525653 -0.18332606781729455 -0.5311808575139966
 -0.45109938833611585 0.2753432484276491 0.5797709397456784 0.2095509544466226 -0.18280154172991323 -0.532732615922881 0.03568894679002335 0.12922024824955644
3658080808.0808077 -0.07124033288302102 -0.4015184622311628 0.44791765440432363 -0.517382994663635 0.2270520273759319 0.12131404136039763 -0.4802770088680456 0.2549391241103153
 0.4488309943474218 -0.5187691989287938 0.20691461416483165 -0.00919213641749117 -0.06449075804376433 -0.291191560545804 0.5861092788305862 0.2310293240670641
 0.22718249489896086 0.12075519635876077 -0.06483119455731474 -0.2902056126831221 0.36995235097154094 -0.6310060006848611 -0.12499718731904677 -0.5038545402970145
 -0.48124255074480177 0.2556756275348911 0.5860008521393443 0.23095948125903176 -0.12443351242980136 -0.5054683218043093 0.05493840835327228 0.16680868950058597
3705555555.5555553 -0.036297813357069504 -0.4012517071719358 0.4561698348687988 -0.5099505770228513 0.19381069516390603 0.13407786511065997 -0.5075781835602146 0.23007619616748376
 0.45710481042536905 -0.5113240908112454 0.21403707752642068 0.003086349060287234 -0.03559794003444153 -0.2682271492222126 0.5883897801883273 0.253348173992071
 0.19388828789815638 0.13351018610590515 -0.035964434776582774 -0.2672235715004995 0.469037266017812 -0.6189777417330478 -0.07380098604589135 -0.4680696055540145
 -0.508613491524687 0.23077001964926855 0.5882820550610541 0.2532732041936013 -0.07319553798631494 -0.46973741312523787 0.06709167363164069 0.20729128570971525
3753030303.030303 -0.0007100685157969553 -0.3965158601301039 0.4656262032930338 -0.5034318606265115 0.16045635530439722 0.1409271024969367 -0.5320444780488445 0.20134834632252221
 0.46658417082556075 -0.504796548952775 0.21907638836958937 0.01492802617034575 -0.012532933389096917 -0.24330320488112817 0.5870827275613776 0.27462105193803354
 0.160490088973318 0.14033984768670202 -0.012929862095317162 -0.2422837207544846 0.5573299844894021 -0.5929646947992095 -0.031429242924965795 -0.4283425151859413
 -0.533143790678289 0.2019913491123717 0.5869754803145179 0.2745414181023683 -0.03077244007325099 -0.4300582348828422 0.07290592685346504 0.24729322236540438
3800505050.50505 0.034411297300483784 -0.38747703074039186 0.4769518131843623 -0.4976688695026966 0.12926264912217514 0.14110345556142886 -0.5524350118013018 0.16921513462080148
 0.47793835862643785 -0.49902529907718063 0.2220365854458778 0.02681676543997966 0.005543965220874426 -0.21555999379654087 0.5818647776488755 0.29554716253454716
 0.12925890855052813 0.14047963484086523 0.005119961174402114 -0.21452883582006846 0.6409222165531758 -0.5536121167949437 0.002081405980311835 -0.38273471025750616
 -0.553591112499982 0.16979653507525178 0.5817595373156653 0.2954634634185438 0.002792193003397484 -0.384493777723973 0.07127213738766677 0.2877079952150924
3847979797.979798 0.06862271003886874 -0.3739636697352055 0.48960725192693627 -0.4923057112562235 0.09926874484623392 0.1356325112540785 -0.5691835957107745 0.13413534381170386
 0.4906255267748285 -0.4936576875921047 0.22380399589611705 0.03810077960302437 0.019349200644670907 -0.18762038490295516 0.5744086210915136 0.3151559298414497
 0.09923349675405789 0.1349651286307898 0.018895297683540608 -0.18658293557784078 0.7142732493770592 -0.5078760562506796 0.028890729091470155 -0.33534731736333595
 -0.5703915534130909 0.1346491514180941 0.5743055392645185 0.3150680708108057 0.02965942925819157 -0.3371401546978874 0.06498287748382207 0.3271340957554012
3895454545.454545 0.10125977207913438 -0.35664479777803443 0.5040595036326484 -0.4865245490641975 0.07297994361216432 0.12595073283778774 -0.5815214212956876 0.0975086066586753
 0.5051132667137954 -0.4878693637781714 0.22381489681403424 0.0486431575940787 0.027641200855710254 -0.1589038908118854 0.5637076456964147 0.33283192047116955
 0.07292808285965734 0.12523052354463185 0.027159038139784555 -0.15786084833917458 0.7778407775766859 -0.4502214465626757 0.045826284483958986 -0.28625224276163613
 -0.5827699784571556 0.09794860375205314 0.563606891697855 0.33274072251818454 0.046656878558417776 -0.288074574329407 0.05224813097712077 0.3639621547386344
3942929292.9292927 0.13152374605560896 -0.33551283138471033 0.5201027714735506 -0.4805496016411588 0.04999167318621317 0.11122164187187937 -0.589342528630857 0.059205937501164596
 0.5211969356298521 -0.4818892169046785 0.22297431856176017 0.058789189881803885 0.03272276413648064 -0.13022722345923485 0.5511692829092637 0.349333550578669
 0.04993005214380204 0.11044029845588633 0.03221417681624362 -0.12918559555946302 0.8346547390938449 -0.38886613692786975 0.0566369003106578 -0.23564979427843172
 -0.5906249173469187 0.059566890959566465 0.5510719894852352 0.3492393289246039 0.05752835554845907 -0.23749269608672427 0.035009081391283885 0.39957635202349157
3990404040.4040403 0.15932022010295793 -0.3111749061224901 0.5373749580486277 -0.47343346385951257 0.030715075253752847 0.09422444841822329 -0.5931085709403585 0.020691950252394706
 0.5385121952580766 -0.47476525302942973 0.22120404500232616 0.06769718377381016 0.03313571314657013 -0.1031506808598205 0.5369740782301266 0.36300298609662196
 0.030657459865732057 0.09338243708607849 0.03260038554262026 -0.10211028686193964 0.8777034191729213 -0.32197120137862834 0.05933894481994238 -0.18746065084364336
 -0.5944150158917948 0.020972614979307084 0.5368800160524319 0.36290576725912244 0.060294041017186835 -0.18931755603020478 0.013913131958868164 0.4309018712404928
4037878787.8787875 0.18382993528452304 -0.2842342642974981 0.5562367693910443 -0.465214363346334 0.016645450925568905 0.07425876440249528 -0.5920923123916783 -0.01767394909661904
 0.557422281392691 -0.466535409871473 0.2185199556009764 0.07615586766137539 0.030198964499133337 -0.07622944475513924 0.5208978218358428 0.3750400687726625
 0.01660526631575971 0.07334975640470584 0.02964137248623614 -0.07519400656252562 0.91461044097604 -0.24992939156293334 0.05478608111359123 -0.13891634701611802
 -0.5934124172095834 -0.017477085093757453 0.5208072352578361 0.374940740891884 0.05580172513547092 -0.14078216507185354 -0.011860811752875414 0.45954291638176104
4085353535.353535 0.20507932699999604 -0.25490234578927684 0.5757995248792986 -0.4556494074717448 0.006038408220558729 0.05284471443239061 -0.5874044117935165 -0.05546334363740051
 0.5770354896685189 -0.45695849441141284 0.21575795530327932 0.08360120953697579 0.02468930139781603 -0.05199498233728301 0.5046695849462324 0.38463735890379785
 0.006023251826398812 0.05187205936221968 0.024109016983128766 -0.0509676206451602 0.939860982962323 -0.1797440315784839 0.04550759442006869 -0.09424303443372244
 -0.5887313781823108 -0.055349200673726215 0.5045830134708567 0.38453655935278613 0.046584126538721835 -0.0961094031087503 -0.03917700630679661 0.48432343032240077
4132828282.8282824 0.22285082094289482 -0.224208649055685 0.5963277353039551 -0.44412635135760314 0.0008286062527540257 0.03140691130225519 -0.5787475049641778 -0.09141317595880129
 0.5976167189196402 -0.44541758426794986 0.21223065753414744 0.09017279720340601 0.015507679669064566 -0.029132710008702517 0.4871640600956614 0.39164900417131077
 0.0008550666456191827 0.030373163146110098 0.014908862918230622 -0.028112536632403224 0.9552556034341316 -0.10483804684452856 0.02867367642105659 -0.05245653846746353
 -0.5800704561635285 -0.09137989490150143 0.48708084371694405 0.3915468202279907 0.0298085975325841 -0.05432020942341116 -0.06982740746527226 0.5043240563235334
4180303030.30303 0.23686229720604937 -0.19229160836320924 0.6173245749607741 -0.4311466601469927 -0.00045048551713112116 0.009137400628327881 -0.5666168020170717 -0.1260002229281883
 0.6186690693923765 -0.43241757199637876 0.20886883407580073 0.09635285060162245 0.005364411814361211 -0.008268952154759627 0.46992788884767583 0.39715107065369876
 -0.00037619546639036894 0.008043578574084227 0.004749436639270021 -0.007260288046244896 0.9648621818896356 -0.033896885353968585 0.009050753960574765 -0.01347927004071435
 -0.56792907142705 -0.1260470650153665 0.4698490075786966 0.39704827319228314 0.010239864550932343 -0.015333055128349022 -0.10144899553675041 0.5215302001201787
4227777777.7777777 0.24760330068499004 -0.15988910211170482 0.638279939189701 -0.4159661410767877 0.0020582833692538967 -0.01115388901993238 -0.5519399482650544 -0.15801062357971288
 0.639679531542192 -0.4172119134245532 0.20538736275036873 0.1014214246338369 -0.007430284997549343 0.009529287529982751 0.4528970510559539 0.3997391660939179
 0.0021910292269774665 -0.012297128337901272 -0.008060321316001692 0.010528249127609138 0.9620088500238195 0.03611175425952465 -0.015501921953798046 0.019427575559977248
 -0.5532341936091151 -0.1581313536079243 0.45282138283312817 0.3996361813260398 -0.014260030813894623 0.017586293288771603 -0.13355764987588734 0.5333138869243852
4275252525.252525 0.25470923763493497 -0.12756355084912246 0.659459291898665 -0.3989838142737855 0.009053144164855118 -0.03070436590803187 -0.5342938350333695 -0.18760322007577168
 0.6609174152182746 -0.40019915384178817 0.20175294909703126 0.10638103380500866 -0.021221540518836454 0.0262979486132429 0.4357889070364348 0.4010739838481597
 0.009254624853024071 -0.03189490131152173 -0.0218613289647786 0.027285601937365893 0.9560099989246532 0.1052797005278437 -0.043358469409933 0.05014998994482946
 -0.5355627215390081 -0.18779542377908362 0.4357162367469616 0.40097060971997167 -0.042070190253865665 0.04832522525503272 -0.16696247167219222 0.5421417394676664
4322727272.727272 0.2587394057735732 -0.09535889907948666 0.6798654547342217 -0.3802026995277497 0.01807548171673862 -0.048124574653238675 -0.5151548082607488 -0.2147974824775353
 0.6813808442896536 -0.3813845952047779 0.1986631941482042 0.1106506272302868 -0.03544259794216612 0.03962420325932693 0.4201704915474034 0.4004301666780632
 0.01834783940223675 -0.049351748067452295 -0.03609280398797464 0.04060011283969826 0.9412009346411236 0.16706763878472447 -0.07200106603948493 0.07466525400870193
 -0.5163954209230663 -0.21505630261521733 0.42010164744331735 0.4003275583821989 -0.07066825736371281 0.0728610176684123 -0.19861059574925166 0.5471470090594941
4370202020.20202 0.25985761497673276 -0.06414485360758186 0.6998512630300926 -0.3592911149129294 0.030807852680889092 -0.06263420680017513 -0.49426630956180084 -0.2387806570489799
 0.7014222889792209 -0.360432537072973 0.1952284807757859 0.11452983094352155 -0.05135171637555277 0.051552242383457555 0.4045730615127135 0.39800224053301947
 0.03116134494044609 -0.06388921109773228 -0.052007674175768355 0.052519228740564305 0.92036721952412 0.22970749363000928 -0.10445362192877386 0.09528209423712435
 -0.49547189881019454 -0.23909958298572742 0.4045067861871834 0.39790001460172686 -0.10308143359107946 0.09349747759893604 -0.23078991099750992 0.5480592224659296
4417676767.676767 0.25808726703179563 -0.03371320176466043 0.7189197112247837 -0.33704887399160643 0.04513334117668296 -0.07560454351724022 -0.47221973163724956 -0.26060429576431776
 0.7205473167316218 -0.33814730151397 0.19235272139292264 0.11848570494074073 -0.06617880191378268 0.06151673730934487 0.39048449550571007 0.3949792904817536
 0.04556780779867361 -0.07688185876196084 -0.06683947842848297 0.06247212055211823 0.8979235936884472 0.2844822109247446 -0.13559184385482256 0.11242085990325372
 -0.4733884048561977 -0.26098019521401544 0.3904211943279228 0.394878338160693 -0.13418463406646017 0.11066092921050329 -0.26120030722392235 0.5472691534070879
4465151515.151515 0.2542080665637031 -0.00452719322780073 0.7366910953572372 -0.31287124660040544 0.06091573184842416 -0.08459096286257112 -0.4498910632967187 -0.2793753675075417
 0.7383724399775854 -0.31392216416806223 0.18950279617643342 0.121772423239249 -0.08218772439931316 0.06880124737383068 0.37742290248722343 0.38997103532202626
 0.06143498685811639 -0.08587719343584622 -0.08285236380936165 0.06974872845969288 0.8667241181852827 0.33607484060716675 -0.16842997286530575 0.12344214410161805
 -0.4510208182228491 -0.27980139285571115 0.3773622083795144 0.38987125304475273 -0.1669902226445302 0.12170549606352596 -0.28997369601441547 0.5422851304967405
4512626262.626263 0.24793954479638214 0.023175421314620376 0.7535934211142494 -0.2874131194419922 0.0786915062592647 -0.09167433274822438 -0.4266462402386927 -0.29572633360252687
 0.7553262685892147 -0.28841069318293744 0.1866128225093308 0.12546185912375168 -0.09761690664440974 0.07577588672335289 0.3649708839378197 0.3848449307508437
 0.07929891912209323 -0.09296496704226422 -0.09828099788357303 0.07671461956723905 0.836983590732468 0.38509834729283876 -0.20115773038434206 0.1330982350693238
 -0.4277322251179726 -0.29619764231242024 0.36491181122861227 0.384746080341994 -0.19969229647177414 0.13138526051319843 -0.31822659102205164 0.5360542926158535
4560101010.101009 0.23996918008251092 0.04970865896819902 0.7687094660041686 -0.2607602753833294 0.09589060799062686 -0.09568166514881603 -0.4038915026649743 -0.30996202680648655
 0.7704911132290548 -0.26170317032027635 0.18426804665520508 0.12880009110591964 -0.11236665232715527 0.07983810025943157 0.3544958640030935 0.3786679915579805
 0.09658204131539672 -0.0969656746536181 -0.11303207188061211 0.08076948313005977 0.8018578245471234 0.42542883024237604 -0.23187890532978433 0.13715376140501243
 -0.40493604718911025 -0.3104743300256501 0.3544393641604465 0.37857100442430863 -0.23038763959195963 0.13546586166887054 -0.343217799071232 0.5275308694483962
4607575757.575757 0.23045143100457968 0.07442664180433876 0.7826395047690132 -0.23267331081752862 0.11457273745650266 -0.09643857648723837 -0.3810305447092864 -0.3214689358579248
 0.7844665694999898 -0.23355619719784074 0.18143773024918378 0.13214945892595706 -0.1279455253995235 0.08350843475168843 0.3442034648462562 0.371751859998447
 0.11535236789804325 -0.09770779498396343 -0.12860875962313534 0.08443561418217277 0.7645034757675708 0.4667664868547081 -0.2641974477799632 0.13885191636569696
 -0.38203098264686125 -0.32201573563872865 0.34414833831562003 0.37165609279393885 -0.2626852365175737 0.13718616779613124 -0.3678490176522285 0.5166672671895708
4655050505.050505 0.2193444066565507 0.09785951601722144 0.7949682670777823 -0.2040632206014908 0.13245813236381113 -0.09572780949720856 -0.3584869338726444 -0.33158823923097747
 0.7968395364379657 -0.20488501709252402 0.17909142149805227 0.13585002806015245 -0.14156632439892608 0.08590608222778884 0.3356310854881049 0.36516207218348207
 0.13332055313162722 -0.09697742780064361 -0.14222692634132267 0.08682702345514512 0.7289248242830481 0.4997611394738018 -0.29288247503766296 0.13834608614511462
 -0.3594441093419181 -0.332167180313803 0.3355772568531406 0.3650675959083672 -0.2913534926821756 0.1367050892413476 -0.3898297480553632 0.505802219169152
4702525252.525252 0.20741508630114314 0.11972140149059912 0.8054901268445616 -0.17426202648945946 0.149866083891948 -0.09118200446376372 -0.3369090470801542 -0.3394099394303344
 0.8074003522083439 -0.17501917960024665 0.1765126051621473 0.13906654776631971 -0.15610623804953858 0.08644132691868653 0.32795583097195613 0.35734071869032985
 0.1508104523933497 -0.09240029958042728 -0.15676495110479388 0.08736068001268386 0.6869459347304341 0.5304785889974267 -0.3220555076745169 0.13316338271601577
 -0.3378241617213063 -0.3400153068970701 0.3279034760182078 0.35724758542651 -0.3205092143652668 0.13154307302343426 -0.4098605613089766 0.492179858117427
4750000000.0 0.19420459633883305 0.13994440219702317 0.8147964852442433 -0.14401698225665474 0.1674888320324045 -0.08545949187037095 -0.31534838985734076 -0.34574310314445106
 0.8167438043412885 -0.14470659491431892 0.17372038571044351 0.14291024350092285 -0.1695401082463993 0.08756154903795682 0.32078939112375154 0.3502546021371612
 0.1685138336488818 -0.08664410454085612 -0.17019302441246162 0.0884781692805507 0.6495305471791367 0.5593254159646764 -0.34961897892940447 0.12844155412619596
 -0.31621952226926614 -0.34637197328873265 0.3207383359349834 0.35016298105253224 -0.3480615562937143 0.12684268861812006 -0.42916402456589464 0.47895492786978633
