! Created with skrf (http://scikit-rf.org).
# Hz S RI R 50.0 
!freq ReS11 ImS11
50000000.0 -0.4906993191670711 0.4411535271689688
97474747.47474748 -0.8817982285181049 0.294991553200765
144949494.94949496 -0.952263296330338 0.11939702699548271
192424242.4242424 -0.9873640788187588 -0.059652657922858135
239898989.8989899 -0.9873595829732801 -0.1732754823070972
287373737.37373734 -0.9500045912308651 -0.29237333390749826
334848484.8484848 -0.9228429104463667 -0.3942766223718617
382323232.3232323 -0.8684859970285839 -0.47600083782094005
429797979.7979798 -0.811177030472083 -0.5641303772860722
477272727.27272725 -0.7512692650131599 -0.6298802211266387
524747474.74747473 -0.6733274725539349 -0.693038658274534
572222222.2222222 -0.6003740491134438 -0.7494185488873564
619696969.6969696 -0.5159075257707335 -0.788248929932273
667171717.1717172 -0.4265125002808222 -0.8262119389760585
714646464.6464646 -0.33952437971752436 -0.8477789594891605
762121212.1212121 -0.2429092687280061 -0.8589443628533353
809595959.5959595 -0.1508051722060726 -0.8628265283051328
857070707.070707 -0.05808739648349698 -0.8491992469911325
904545454.5454545 0.035216291209297534 -0.8287727334143367
952020202.0202019 0.12005855665361334 -0.795548444330451
999494949.4949495 0.20349773133221194 -0.7498169561943351
1046969696.9696969 0.2783403560710734 -0.6977420988003107
1094444444.4444444 0.3436908570328129 -0.6336471254767282
1141919191.9191918 0.40196776385015603 -0.5636920535915286
1189393939.3939393 0.44708254028311173 -0.48855853847238506
1236868686.8686867 0.48218788895757353 -0.4076711993483313
1284343434.3434343 0.505937873036449 -0.3265229557177029
1331818181.8181818 0.5169997870452309 -0.24414462934053538
1379292929.2929292 0.5181394806181383 -0.16323953889973214
1426767676.7676766 0.5081638440107654 -0.08614430933579559
1474242424.2424242 0.4886865621106499 -0.012903100013903879
1521717171.7171717 0.46115119819299427 0.054291614010251676
1569191919.191919 0.4261845571136996 0.11485662713654565
1616666666.6666665 0.3854181324053392 0.1682897485694036
1664141414.141414 0.3402261046406974 0.21411023634242787
1711616161.6161616 0.2917439079278102 0.2519087975489084
1759090909.090909 0.24096062946776214 0.2821702773112826
1806565656.5656564 0.18961895392847095 0.3048351229163648
1854040404.0404038 0.13788422242398296 0.3199117778920596
1901515151.5151515 0.08708021904292113 0.32870245553453964
1948989898.989899 0.03820550227045766 0.33059800889682617
1996464646.4646463 -0.009096775205692076 0.32683248955203675
2043939393.9393938 -0.05302760837723525 0.3180494652468229
2091414141.4141412 -0.09411322328319216 0.30385580608877094
2138888888.8888888 -0.13187869617972459 0.2861757794039244
2186363636.363636 -0.16526044538255563 0.26437531877530723
2233838383.8383837 -0.19540866938187645 0.2393662730123896
2281313131.3131313 -0.22084511421315656 0.21219938671286293
2328787878.7878785 -0.24210235742770086 0.18208704890950936
2376262626.262626 -0.25935635072160645 0.15085123558633873
2400000000.0 -0.2659700870895261 0.1343152777222506
2423737373.7373734 -0.2714645988399336 0.11803418377811381
2471212121.212121 -0.27970818547274023 0.08406219311344643
2518686868.6868687 -0.28298504821805803 0.050129151791669956
2566161616.161616 -0.2815194969803289 0.015377053908978186
2613636363.6363635 -0.27573283633624507 -0.018713918816363695
2661111111.111111 -0.26446111110297066 -0.05230543376830063
2708585858.5858583 -0.2486171471668931 -0.085227185182189
2756060606.060606 -0.22725775265197973 -0.11629899079241045
2803535353.535353 -0.20007197856892334 -0.14603548271779737
2851010101.010101 -0.1669700860019665 -0.1731567724934524
2898484848.4848485 -0.12633018901389415 -0.19725854234769716
2945959595.9595957 -0.07746282319615233 -0.2174901211123827
2993434343.4343433 -0.017714274037914257 -0.23176194985796278
3040909090.9090905 0.056481694066492616 -0.23750150685596863
3088383838.383838 0.15144193914489879 -0.22769273999673117
3135858585.858586 0.278134595756143 -0.18666601801994695
3183333333.333333 0.44945631131985053 -0.06798807359049186
3230808080.8080807 0.6256061942591739 0.2682275743137783
3278282828.282828 0.3199952478519642 0.9157919587082852
3325757575.7575755 -0.49208620503241324 0.7280538249272563
3373232323.232323 -0.5731939019641399 0.22974090499677358
3420707070.7070704 -0.4492506313988974 0.002520564827674654
3468181818.181818 -0.3293319305440121 -0.09256896874661374
3515656565.656565 -0.23224279245794305 -0.1337325698943455
3563131313.131313 -0.15467525135362342 -0.14639249747948024
3610606060.6060605 -0.08945204754881772 -0.1429722979433954
3658080808.0808077 -0.035543057205873335 -0.1298365389335852
3705555555.5555553 0.009859648096338366 -0.10821220197782744
3753030303.030303 0.04816877302109568 -0.081678600441704
3800505050.50505 0.07887196669762819 -0.05040397113131884
3847979797.979798 0.10382435663095906 -0.015562214118217399
3895454545.454545 0.12207748756974962 0.021360697179241328
3942929292.9292927 0.13438118015432532 0.060723045408847764
3990404040.4040403 0.14102432734177375 0.10063679029537681
4037878787.8787875 0.14144593937789285 0.14126862828249326
4085353535.353535 0.13684958320004914 0.18166184859474643
4132828282.8282824 0.1264682145308231 0.22091519700350712
4180303030.30303 0.11124381188786522 0.25919733491102026
4227777777.7777777 0.09131988562826684 0.29498515567606676
4275252525.252525 0.06667076514439538 0.3287164451828855
4322727272.727272 0.038517483959471105 0.3593678916635674
4370202020.20202 0.006246751399411554 0.38661972410240386
4417676767.676767 -0.028764708442158005 0.4106820681690594
4465151515.151515 -0.06657798835109435 0.43031917019823196
4512626262.626263 -0.10682720150324948 0.4464866947958778
4560101010.101009 -0.14830830849072832 0.45809113039530885
4607575757.575757 -0.1917734064521926 0.46545605843015414
4655050505.050505 -0.23549188988039776 0.4688737291887263
4702525252.525252 -0.27999879667550975 0.46729464137802446
4750000000.0 -0.3246807725413582 0.4622357342011512
