! Created with skrf (http://scikit-rf.org).
# Hz S RI R 50.0 
!freq ReS11 ImS11
50000000.0 -0.009995122789987376 0.02203649450869999
97474747.47474748 -0.010300603820168064 0.02972077007089871
144949494.94949496 -0.014371004382645713 0.04123382244976537
192424242.4242424 -0.017458262432410443 0.05279618849792658
239898989.8989899 -0.023321513159726026 0.06352272120077676
287373737.37373734 -0.029269268117059988 0.07525024162427615
334848484.8484848 -0.03626763943309047 0.08484011226384175
382323232.3232323 -0.045040724323949344 0.09508409860880668
429797979.7979798 -0.05327329182054413 0.10404712816133077
477272727.27272725 -0.06373813232068337 0.11181603843150004
524747474.74747473 -0.07399708846032588 0.11984572297846902
572222222.2222222 -0.08494642577730482 0.12548289854486872
619696969.6969696 -0.09725818129418007 0.1313021121201836
667171717.1717172 -0.10867029857561247 0.1356451306818925
714646464.6464646 -0.12178288361538489 0.13846255102067406
762121212.1212121 -0.13439230019939738 0.1413504748339744
809595959.5959595 -0.14708895759162627 0.14174603047960455
857070707.070707 -0.16077462462949924 0.1420609481087437
904545454.5454545 -0.1731130667779699 0.140994250804998
952020202.0202019 -0.18656355282939108 0.13821882854581613
999494949.4949495 -0.19923628376393687 0.13556534370465062
1046969696.9696969 -0.21136637999384783 0.13052893737304605
1094444444.4444444 -0.2241459446795647 0.12531668662893197
1141919191.9191918 -0.23516491336667783 0.11902641277447368
1189393939.3939393 -0.24675506604391662 0.11102280255838293
1236868686.8686867 -0.25735935711626784 0.10333481785973803
1284343434.3434343 -0.26686752685158255 0.09355053846888411
1331818181.8181818 -0.276747993818846 0.08363346768539381
1379292929.2929292 -0.28457022859188175 0.07306310512723813
1426767676.7676766 -0.29249560793445517 0.060918075204011046
1474242424.2424242 -0.2993250539657172 0.04937787909393476
1521717171.7171717 -0.30463043961555747 0.03614614935452831
1569191919.191919 -0.3101079006102925 0.0229155192585328
1616666666.6666665 -0.31336082031467566 0.009534324379862902
1664141414.141414 -0.31635158174858086 -0.005184913169206995
1711616161.6161616 -0.3182453073467949 -0.01896329509864414
1759090909.090909 -0.3183143313974408 -0.03395284754876127
1806565656.5656564 -0.31844486133654837 -0.048752320950716854
1854040404.0404038 -0.3163163503785672 -0.06316116170965289
1901515151.5151515 -0.31366425003270865 -0.078603941813605
1948989898.989899 -0.3100216844583226 -0.09275254370256616
1996464646.4646463 -0.3043820319732605 -0.10757716260615763
2043939393.9393938 -0.29879461720647005 -0.12199151800931204
2091414141.4141412 -0.2910434005588794 -0.1354615804751138
2138888888.8888888 -0.2826199967651457 -0.14961491479441247
2186363636.363636 -0.27342597741606534 -0.16211876844060824
2233838383.8383837 -0.26220692280790764 -0.17473738975726355
2281313131.3131313 -0.25112683315379847 -0.18671658986575246
2328787878.7878785 -0.23813084688088398 -0.1971958909860544
2376262626.262626 -0.22443576584985836 -0.20798655553414253
2400000000.0 -0.21717853526895314 -0.21221307883847232
2423737373.7373734 -0.2103218503664619 -0.21680260183035088
2471212121.212121 -0.1943113641000475 -0.2251592568026641
2518686868.6868687 -0.1786490848293712 -0.23266768195437632
2566161616.161616 -0.16149405521242122 -0.2381623538533726
2613636363.6363635 -0.14375073634345203 -0.24360227422647568
2661111111.111111 -0.1260988297624444 -0.24681930963479398
2708585858.5858583 -0.10686973617330553 -0.24903257270659437
2756060606.060606 -0.08832532610575589 -0.2502704772743487
2803535353.535353 -0.06893206659983309 -0.24908088574087311
2851010101.010101 -0.049224241445789074 -0.2475209731717161
2898484848.4848485 -0.0303357418430672 -0.24368653179625843
2945959595.9595957 -0.010598802941898688 -0.2383758753859398
2993434343.4343433 0.007047540976297451 -0.23258888375296297
3040909090.9090905 0.030891075472527563 -0.22419082968616827
3088383838.383838 0.048113336716716026 -0.21404352119268447
3135858585.858586 0.06527675044985598 -0.20226383621671135
3183333333.333333 0.08304621705960841 -0.18911239742706015
3230808080.8080807 0.09912766449699867 -0.17513211159134506
3278282828.282828 0.11455986531045953 -0.1586429279063351
3325757575.7575755 0.12934826566692284 -0.14179589259101277
3373232323.232323 0.14194008262494115 -0.12315214512761596
3420707070.7070704 0.1542515954760479 -0.10309226989615972
3468181818.181818 0.16440837094569863 -0.082764326687219
3515656565.656565 0.17301774484366514 -0.060388734749721784
3563131313.131313 0.18060417482234634 -0.03799918238999134
3610606060.6060605 0.18542529940953462 -0.014649042824248615
3658080808.0808077 0.18935826022323293 0.00970183131235608
3705555555.5555553 0.19096807770749746 0.033547169300130575
3753030303.030303 0.19043438877199487 0.0586153607427603
3800505050.50505 0.18873202603053055 0.08315561528024229
3847979797.979798 0.18411074420856044 0.10758525105347705
3895454545.454545 0.17826207174865702 0.1323607540567318
3942929292.9292927 0.17034459984445557 0.15578670100095182
3990404040.4040403 0.1601116036141819 0.17935761059369104
4037878787.8787875 0.14890748549004712 0.20183690407315924
4085353535.353535 0.13534055517068855 0.22294854923795043
4132828282.8282824 0.12085038397239428 0.24331294142334206
4180303030.30303 0.10818779690466845 0.2621999589003634
4227777777.7777777 0.08697613585750927 0.2887724122226717
4275252525.252525 0.06491674736251415 0.3027292105960254
4322727272.727272 0.04326375303675595 0.31707662987005547
4370202020.20202 0.021477090152839384 0.33081554979116357
4417676767.676767 -0.001454572126318554 0.3422284574609333
4465151515.151515 -0.025646353842236014 0.35275568042956107
4512626262.626263 -0.04973938855838328 0.3612861636465409
4560101010.101009 -0.07514143711309929 0.3677450746782147
4607575757.575757 -0.1005683584232952 0.37309090060712524
4655050505.050505 -0.1261235410513617 0.37585592612238405
4702525252.525252 -0.15238141949309603 0.37728320873904686
4750000000.0 -0.1779050215177549 0.37687967859424654
